p cnf 120 244
-1 -2 -3 -6 0
-2 -3 -4 -12 0
-2 -4 -6 -12 0
-3 -4 -6 -12 0
-2 -3 -6 0
-5 -6 -10 -15 0
-4 -5 -10 -12 -15 0
-2 -3 -5 -10 -15 0
-5 -9 -10 -15 -18 0
-6 -9 -18 0
-4 -9 -12 -18 0
-2 -3 -9 -18 0
-4 -5 -10 -20 0
-5 -12 -15 -20 0
-4 -10 -12 -15 0
-2 -3 -10 -12 -15 -20 0
-4 -5 -20 0
-3 -5 -10 -12 -20 0
-2 -5 -9 -10 -12 -18 -20 0
-2 -5 -6 -10 -12 -20 0
-2 -3 -10 -15 0
-10 -12 -15 -20 0
-6 -10 -15 0
-3 -9 -10 -15 -18 0
-9 -10 -15 -18 0
-3 -5 -12 -20 0
-2 -5 -9 -12 -18 -20 0
-2 -5 -6 -12 -20 0
1 21 0
-1 -21 0
2 22 0
-2 -22 0
3 23 0
-3 -23 0
4 24 0
-4 -24 0
5 25 0
-5 -25 0
6 26 0
-6 -26 0
7 27 0
-7 -27 0
8 28 0
-8 -28 0
9 29 0
-9 -29 0
10 30 0
-10 -30 0
11 31 0
-11 -31 0
12 32 0
-12 -32 0
13 33 0
-13 -33 0
14 34 0
-14 -34 0
15 35 0
-15 -35 0
16 36 0
-16 -36 0
17 37 0
-17 -37 0
18 38 0
-18 -38 0
19 39 0
-19 -39 0
20 40 0
-20 -40 0
-21 41 0
-42 0
-43 0
-44 0
-22 45 0
-41 45 0
-42 46 0
-22 -41 46 0
-43 47 0
-22 -42 47 0
-44 48 0
-22 -43 48 0
-22 -44 0
-23 49 0
-45 49 0
-46 50 0
-23 -45 50 0
-47 51 0
-23 -46 51 0
-48 52 0
-23 -47 52 0
-23 -48 0
-24 53 0
-49 53 0
-50 54 0
-24 -49 54 0
-51 55 0
-24 -50 55 0
-52 56 0
-24 -51 56 0
-24 -52 0
-25 57 0
-53 57 0
-54 58 0
-25 -53 58 0
-55 59 0
-25 -54 59 0
-56 60 0
-25 -55 60 0
-25 -56 0
-26 61 0
-57 61 0
-58 62 0
-26 -57 62 0
-59 63 0
-26 -58 63 0
-60 64 0
-26 -59 64 0
-26 -60 0
-27 65 0
-61 65 0
-62 66 0
-27 -61 66 0
-63 67 0
-27 -62 67 0
-64 68 0
-27 -63 68 0
-27 -64 0
-28 69 0
-65 69 0
-66 70 0
-28 -65 70 0
-67 71 0
-28 -66 71 0
-68 72 0
-28 -67 72 0
-28 -68 0
-29 73 0
-69 73 0
-70 74 0
-29 -69 74 0
-71 75 0
-29 -70 75 0
-72 76 0
-29 -71 76 0
-29 -72 0
-30 77 0
-73 77 0
-74 78 0
-30 -73 78 0
-75 79 0
-30 -74 79 0
-76 80 0
-30 -75 80 0
-30 -76 0
-31 81 0
-77 81 0
-78 82 0
-31 -77 82 0
-79 83 0
-31 -78 83 0
-80 84 0
-31 -79 84 0
-31 -80 0
-32 85 0
-81 85 0
-82 86 0
-32 -81 86 0
-83 87 0
-32 -82 87 0
-84 88 0
-32 -83 88 0
-32 -84 0
-33 89 0
-85 89 0
-86 90 0
-33 -85 90 0
-87 91 0
-33 -86 91 0
-88 92 0
-33 -87 92 0
-33 -88 0
-34 93 0
-89 93 0
-90 94 0
-34 -89 94 0
-91 95 0
-34 -90 95 0
-92 96 0
-34 -91 96 0
-34 -92 0
-35 97 0
-93 97 0
-94 98 0
-35 -93 98 0
-95 99 0
-35 -94 99 0
-96 100 0
-35 -95 100 0
-35 -96 0
-36 101 0
-97 101 0
-98 102 0
-36 -97 102 0
-99 103 0
-36 -98 103 0
-100 104 0
-36 -99 104 0
-36 -100 0
-37 105 0
-101 105 0
-102 106 0
-37 -101 106 0
-103 107 0
-37 -102 107 0
-104 108 0
-37 -103 108 0
-37 -104 0
-38 109 0
-105 109 0
-106 110 0
-38 -105 110 0
-107 111 0
-38 -106 111 0
-108 112 0
-38 -107 112 0
-38 -108 0
-39 113 0
-109 113 0
-110 114 0
-39 -109 114 0
-111 115 0
-39 -110 115 0
-112 116 0
-39 -111 116 0
-39 -112 0
-40 117 0
-113 117 0
-114 118 0
-40 -113 118 0
-115 119 0
-40 -114 119 0
-116 120 0
-40 -115 120 0
-40 -116 0
-120 0
